coords = array2d(1..48, 1..2, [312, 964, 847, 679, 392, 793, 269, 958, 15, 699,
    971, 494, 711, 542, 32, 76, 254, 930, 869, 930, 373, 389, 948,
    785, 103, 836, 367, 219, 888, 872, 920, 10, 508, 405, 947, 936,
    845, 739, 21, 569, 722, 172, 984, 480, 703, 834, 180, 738, 828,
    104, 173, 584, 471, 480, 533, 895, 646, 613, 552, 381, 176, 404,
    601, 599, 78, 260, 733, 782, 674, 735, 150, 785, 630, 922, 934,
    333, 888, 110, 761, 562, 497, 987, 783, 42, 527, 814, 754, 673,
    863, 414, 922, 845, 842, 908, 864, 988]);

n = 48;

